Minimize
z0 + z1 + z2 + z3 + z4 + z5 + z6 + z7 + z8 + z9 + z10 + z11 + z12 + z13 + z14 + z15 + z16 + z17 + z18 + z19 + z20 + z21 + z22 + z23 + z24 + z25 + z26 + z27 + z28 + z29 + z30 + z31 + z32 + z33 + z34 + z35 + z36 + z37 + z38 + z39 + z40 + z41 + z42 + z43 + z44 + z45 + z46 + z47 + z48 + z49 + z50 + z51 + z52 + z53 + z54 + z55 + z56 + z57 + z58 + z59 + z60 + z61 + z62 + z63 + z64 + z65 + z66 + z67 + z68 + z69 + z70 + z71 + z72 + z73 + z74 + z75 + z76 + z77 + z78 + z79 + z80 + z81 + z82 + z83 + z84 + z85 + z86 + z87 + z88 + z89 + z90 + z91 + z92 + z93 + z94 + z95 + z96 + z97 + z98 + z99 + z100 + z101 + z102 + z103 + z104 + z105 + z106 + z107 + z108 + z109 + z110 + z111 + z112 + z113 + z114 + z115 + z116 + z117 + z118 + z119 + z120 + z121 + z122 + z123 + z124 + z125 + z126 + z127 + z128 + z129 + z130 + z131 + z132 + z133 + z134 + z135 + z136 + z137 + z138 + z139 + z140 + z141 + z142 + z143 + z144 + z145 + z146 + z147 + z148 + z149 + z150 + z151 + z152 + z153 + z154 + z155 + z156 + z157 + z158 + z159 + z160 + z161 + z162 + z163 + z164 + z165 + z166 + z167 + z168 + z169 + z170 + z171 + z172 + z173 + z174 + z175 + z176 + z177 + z178 + z179 + z180 + z181 + z182 + z183 + z184 + z185 + z186 + z187 + z188 + z189 + z190 + z191 + z192 + z193 + z194 + z195 + z196 + z197 + z198 + z199 + z200 + z201 + z202 + z203 + z204 + z205 + z206 + z207 + z208 + z209 + z210 + z211 + z212 + z213 + z214 + z215 + z216 + z217 + z218 + z219 + z220 + z221 + z222 + z223 + z224 + z225 + z226 + z227 + z228 + z229 + z230 + z231 + z232 + z233 + z234 + z235 + z236


Subject To
z59 + z77 + z84 + z87 + z93 + z95 + z114 + z126 + z130 + z134 + z139 + z147 + z149 + z159 + z166 + z172 + z177 + z183 + z196 >= 1
z38 + z52 + z53 + z60 + z66 + z69 + z77 + z84 + z91 + z99 + z111 + z114 + z116 + z149 + z160 + z161 + z182 + z184 + z185 + z188 + z189 + z191 + z192 + z195 + z197 + z202 + z204 + z210 + z217 + z218 + z220 >= 1
z59 + z77 + z84 + z87 + z91 + z95 + z96 + z99 + z114 + z116 + z130 + z134 + z139 + z147 + z149 + z159 + z161 + z166 + z172 + z177 + z182 + z183 + z189 + z191 + z195 + z196 + z197 + z218 + z220 >= 1
z66 + z69 + z70 + z71 + z72 + z82 + z89 + z95 + z113 + z114 + z121 + z126 + z134 + z143 + z149 + z151 + z166 + z172 + z179 + z180 + z192 + z193 + z194 + z198 + z199 + z203 + z212 + z221 >= 1
z82 + z87 + z95 + z114 + z126 + z130 + z134 + z139 + z147 + z149 + z159 + z164 + z166 + z172 + z180 + z183 + z193 + z198 + z203 + z212 >= 1
z66 + z69 + z74 + z82 + z91 + z95 + z114 + z116 + z134 + z149 + z166 + z172 + z179 + z180 + z189 + z191 + z192 + z193 + z195 + z197 + z198 + z202 + z203 + z212 + z218 + z220 >= 1
z66 + z69 + z77 + z87 + z91 + z95 + z114 + z116 + z126 + z130 + z134 + z139 + z147 + z149 + z159 + z164 + z166 + z172 + z180 + z183 + z191 + z192 + z193 + z195 + z197 + z198 + z200 + z203 + z212 + z218 + z220 >= 1
z57 + z63 + z70 + z71 + z77 + z80 + z84 + z85 + z88 + z93 + z97 + z113 + z121 + z122 + z144 + z156 + z160 + z162 + z163 + z166 + z167 + z169 + z179 + z203 >= 1
z57 + z77 + z80 + z84 + z87 + z93 + z95 + z96 + z122 + z130 + z134 + z159 + z166 + z167 + z183 + z196 + z203 >= 1
z57 + z77 + z80 + z84 + z91 + z96 + z116 + z122 + z160 + z161 + z166 + z167 + z179 + z184 + z185 + z188 + z189 + z195 + z203 + z218 + z220 >= 1
z57 + z77 + z80 + z84 + z87 + z91 + z93 + z95 + z96 + z103 + z116 + z122 + z130 + z134 + z149 + z159 + z160 + z161 + z166 + z183 + z195 + z196 + z203 + z218 + z220 >= 1
z70 + z71 + z72 + z80 + z82 + z95 + z97 + z113 + z121 + z134 + z143 + z144 + z148 + z166 + z167 + z173 + z179 + z198 + z203 + z212 >= 1
z73 + z77 + z80 + z86 + z87 + z95 + z104 + z121 + z130 + z134 + z149 + z159 + z164 + z166 + z172 + z173 + z179 + z198 + z203 + z212 >= 1
z69 + z71 + z77 + z80 + z91 + z95 + z116 + z121 + z134 + z148 + z149 + z166 + z173 + z179 + z195 + z198 + z203 + z212 + z220 >= 1
z21 + z77 + z80 + z84 + z86 + z87 + z91 + z95 + z96 + z104 + z116 + z130 + z134 + z149 + z159 + z164 + z166 + z172 + z173 + z179 + z198 + z203 + z212 + z220 >= 1
z32 + z39 + z44 + z51 + z63 + z70 + z85 + z89 + z97 + z108 + z112 + z117 + z119 + z153 + z154 + z162 + z194 >= 1
z32 + z38 + z39 + z44 + z51 + z52 + z53 + z154 + z188 + z189 + z195 + z210 >= 1
z51 + z70 + z71 + z72 + z82 + z89 + z97 + z108 + z151 + z153 + z154 + z194 >= 1
z114 + z149 + z158 + z200 >= 1
z44 + z51 + z63 + z70 + z71 + z85 + z97 + z108 + z117 + z144 + z162 + z163 + z167 + z208 >= 1
z77 + z84 + z96 + z103 >= 1
z63 + z70 + z71 + z72 + z79 + z85 + z89 + z97 + z108 + z113 + z121 + z144 + z148 + z179 + z206 + z208 >= 1
z70 + z71 + z79 + z148 + z179 >= 1
z37 + z40 + z48 + z58 + z60 + z62 + z63 + z67 + z83 + z89 + z106 + z111 + z113 + z118 + z128 + z131 + z135 + z142 + z143 + z170 + z178 + z194 + z199 + z205 + z207 + z211 + z214 + z216 + z219 + z221 + z226 + z228 >= 1
z59 + z67 + z118 + z159 + z170 + z177 + z183 + z211 + z216 + z219 + z228 >= 1
z37 + z38 + z48 + z52 + z53 + z60 + z62 + z67 + z99 + z109 + z111 + z118 + z135 + z170 + z182 + z184 + z188 + z189 + z195 + z204 + z207 + z210 + z211 + z214 + z216 + z217 + z218 + z219 + z220 + z226 + z228 >= 1
z59 + z60 + z67 + z99 + z118 + z159 + z170 + z177 + z182 + z183 + z211 + z218 + z220 >= 1
z58 + z70 + z71 + z72 + z78 + z82 + z89 + z113 + z121 + z128 + z131 + z135 + z142 + z143 + z151 + z194 + z199 + z207 + z211 + z216 + z221 >= 1
z37 + z63 + z70 + z71 + z85 + z97 + z113 + z121 + z142 + z143 + z144 + z163 + z167 + z178 + z205 + z207 + z211 + z219 + z226 + z228 >= 1
z26 + z63 + z70 + z71 + z72 + z78 + z89 + z97 + z113 + z121 + z125 + z142 + z143 + z144 + z148 + z173 + z179 + z199 + z203 >= 1
z14 + z21 + z26 + z86 + z104 + z113 + z121 + z125 + z166 + z173 + z203 >= 1
z26 + z71 + z113 + z121 + z125 + z148 + z173 + z179 + z203 >= 1
z14 + z21 + z26 + z86 + z104 + z125 + z166 + z173 + z203 >= 1
z32 + z37 + z39 + z44 + z48 + z51 + z58 + z63 + z70 + z85 + z89 + z97 + z106 + z108 + z112 + z117 + z119 + z131 + z135 + z142 + z153 + z154 + z194 + z205 + z207 + z211 + z214 + z216 + z228 >= 1
z32 + z37 + z38 + z39 + z44 + z48 + z51 + z52 + z53 + z111 + z135 + z154 + z207 + z210 + z214 >= 1
z51 + z58 + z63 + z70 + z71 + z72 + z89 + z97 + z108 + z113 + z135 + z141 + z142 + z143 + z151 + z153 + z154 + z194 + z199 + z207 + z221 >= 1
z89 + z141 + z171 + z194 >= 1
z37 + z44 + z51 + z63 + z70 + z71 + z85 + z89 + z97 + z108 + z113 + z117 + z138 + z142 + z144 + z162 + z163 + z205 + z207 + z208 >= 1
z63 + z138 >= 1
z63 + z70 + z71 + z72 + z79 + z85 + z89 + z97 + z108 + z113 + z121 + z142 + z143 + z144 + z148 + z208 >= 1
z70 + z71 + z79 + z148 + z235 >= 1
z47 + z49 + z53 + z60 + z62 + z88 + z111 + z118 + z119 + z124 + z126 + z132 + z137 + z140 + z155 + z162 + z178 + z192 + z202 + z204 + z219 + z222 + z226 >= 1
z118 + z124 + z126 + z130 + z132 + z134 + z137 + z147 + z155 + z159 + z172 + z177 + z219 >= 1
z38 + z45 + z47 + z53 + z60 + z62 + z69 + z109 + z111 + z116 + z118 + z124 + z132 + z137 + z155 + z182 + z191 + z192 + z195 + z202 + z204 + z219 + z220 + z222 + z226 >= 1
z60 + z116 + z118 + z126 + z130 + z134 + z137 + z147 + z149 + z155 + z159 + z172 + z177 + z182 + z191 + z192 + z202 + z204 + z220 >= 1
z69 + z82 + z124 + z126 + z134 + z137 + z172 + z180 + z192 + z202 + z212 >= 1
z73 + z95 + z126 + z130 + z134 + z137 + z147 + z149 + z164 + z172 + z175 + z180 + z192 + z212 >= 1
z45 + z53 + z66 + z68 + z69 + z74 + z100 + z116 + z126 + z134 + z137 + z149 + z172 + z180 + z191 + z192 + z202 + z204 + z212 >= 1
z69 + z95 + z116 + z126 + z130 + z134 + z137 + z147 + z149 + z164 + z172 + z180 + z191 + z192 + z202 + z212 >= 1
z85 + z88 + z124 + z132 + z140 + z156 + z162 + z163 + z167 + z169 + z178 + z219 + z222 + z226 >= 1
z13 + z21 + z73 + z86 + z95 + z104 + z126 + z134 + z164 + z166 + z172 + z175 >= 1
z13 + z21 + z73 + z86 + z95 + z104 + z134 + z149 + z164 + z166 + z172 >= 1
z39 + z44 + z47 + z49 + z51 + z53 + z85 + z112 + z117 + z119 + z124 + z132 + z140 + z154 + z162 + z222 >= 1
z38 + z39 + z44 + z45 + z47 + z51 + z53 + z111 + z202 + z204 + z222 >= 1
z126 + z175 >= 1
z10 + z45 + z53 + z68 + z100 + z187 + z192 + z202 >= 1
z44 + z63 + z85 + z97 + z117 + z124 + z140 + z162 + z163 + z206 + z208 + z213 + z222 >= 1
z76 + z162 + z213 + z215 >= 1
z27 + z70 + z79 + z85 + z97 + z162 + z206 + z208 + z213 >= 1
z73 + z175 + z206 + z213 >= 1
z10 + z24 + z27 + z79 + z100 + z206 + z235 >= 1
z37 + z47 + z48 + z49 + z53 + z60 + z62 + z81 + z83 + z106 + z109 + z111 + z118 + z119 + z124 + z128 + z131 + z132 + z135 + z140 + z155 + z170 + z178 + z204 + z205 + z207 + z211 + z216 + z219 + z222 + z226 + z228 >= 1
z60 + z62 + z81 + z118 + z132 + z155 + z170 + z177 + z178 + z211 + z219 + z226 + z228 >= 1
z37 + z38 + z45 + z47 + z48 + z53 + z60 + z62 + z81 + z109 + z111 + z118 + z132 + z155 + z170 + z178 + z182 + z202 + z204 + z207 + z211 + z219 + z222 + z226 + z228 >= 1
z60 + z62 + z81 + z109 + z111 + z118 + z155 + z170 + z177 + z182 + z204 + z219 + z226 >= 1
z45 + z53 + z60 + z68 + z109 + z111 + z187 + z192 + z202 + z204 >= 1
z37 + z62 + z63 + z81 + z85 + z118 + z124 + z132 + z140 + z162 + z163 + z178 + z205 + z219 + z222 + z226 + z228 >= 1
z81 + z86 + z90 + z118 + z178 + z219 + z226 >= 1
z60 + z62 + z81 + z107 + z109 + z111 + z118 + z178 + z219 + z226 >= 1
z21 + z31 + z81 + z86 + z90 + z118 + z219 >= 1
z13 + z14 + z15 + z21 + z26 + z73 + z86 + z90 + z104 >= 1
z13 + z14 + z15 + z21 + z26 + z31 + z86 + z90 + z104 >= 1
z37 + z39 + z44 + z47 + z48 + z49 + z51 + z53 + z62 + z63 + z85 + z106 + z111 + z112 + z117 + z119 + z124 + z132 + z135 + z140 + z154 + z162 + z178 + z205 + z207 + z219 + z222 + z226 + z228 >= 1
z37 + z38 + z39 + z44 + z45 + z47 + z48 + z51 + z53 + z60 + z62 + z109 + z111 + z187 + z204 + z207 + z222 + z226 >= 1
z4 + z10 + z45 + z53 + z68 + z100 + z187 + z235 >= 1
z4 + z187 >= 1
z37 + z44 + z63 + z85 + z97 + z117 + z140 + z162 + z163 + z178 + z205 + z208 + z222 + z226 >= 1
z31 + z230 + z231 >= 1
z27 + z63 + z70 + z79 + z85 + z97 + z206 + z208 + z235 >= 1
z4 + z10 + z24 + z27 + z79 + z187 + z235 >= 1
z4 + z21 + z31 + z235 >= 1
z40 + z43 + z46 + z52 + z57 + z83 + z88 + z92 + z93 + z94 + z119 + z120 + z128 + z131 + z145 + z156 + z157 + z160 + z174 + z181 + z184 + z185 + z186 + z188 + z190 + z201 + z217 + z221 + z224 + z225 >= 1
z57 + z59 + z92 + z93 + z94 + z114 + z120 + z130 + z139 + z145 + z159 + z174 + z181 + z183 + z186 + z196 + z201 + z225 >= 1
z46 + z50 + z52 + z57 + z66 + z69 + z92 + z94 + z99 + z114 + z116 + z120 + z145 + z160 + z161 + z174 + z181 + z184 + z185 + z186 + z188 + z189 + z195 + z197 + z201 + z210 + z217 + z218 + z220 + z224 + z225 >= 1
z57 + z59 + z84 + z92 + z93 + z94 + z99 + z114 + z116 + z130 + z139 + z145 + z159 + z160 + z161 + z174 + z181 + z183 + z184 + z185 + z188 + z189 + z195 + z196 + z197 + z217 + z218 + z220 + z225 >= 1
z40 + z66 + z69 + z82 + z92 + z114 + z120 + z128 + z145 + z151 + z181 + z186 + z190 + z193 + z194 + z199 + z201 + z212 + z221 + z224 + z225 >= 1
z92 + z114 + z130 + z134 + z139 + z145 + z159 + z183 + z193 + z212 + z225 >= 1
z66 + z69 + z74 + z92 + z114 + z116 + z145 + z181 + z184 + z188 + z189 + z193 + z195 + z197 + z201 + z212 + z218 + z220 + z225 >= 1
z66 + z69 + z92 + z114 + z116 + z130 + z134 + z139 + z145 + z149 + z158 + z159 + z183 + z193 + z197 + z200 + z212 + z218 + z220 >= 1
z57 + z88 + z92 + z93 + z94 + z98 + z122 + z156 + z157 + z160 + z167 + z169 + z181 + z184 + z185 + z186 + z188 + z201 + z225 >= 1
z57 + z84 + z92 + z93 + z94 + z98 + z122 + z127 + z156 + z159 + z160 + z183 + z196 >= 1
z41 + z50 + z52 + z57 + z84 + z92 + z93 + z94 + z98 + z107 + z122 + z156 + z160 + z161 + z181 + z184 + z185 + z188 + z189 + z195 + z217 + z218 + z220 >= 1
z57 + z77 + z84 + z92 + z93 + z94 + z96 + z98 + z122 + z159 + z160 + z161 + z183 + z184 + z185 + z196 + z218 + z220 >= 1
z32 + z40 + z43 + z44 + z46 + z51 + z52 + z112 + z119 + z120 + z153 + z154 + z181 + z186 + z188 + z190 + z194 + z201 + z224 + z225 >= 1
z32 + z46 + z50 + z51 + z52 + z154 + z181 + z184 + z185 + z188 + z189 + z201 + z210 + z217 + z224 >= 1
z151 + z153 + z154 + z190 + z194 + z201 + z221 + z224 >= 1
z54 + z64 + z114 + z136 + z158 + z200 >= 1
z76 + z93 + z127 + z209 >= 1
z41 + z50 + z52 + z160 + z184 + z185 + z188 >= 1
z30 + z209 + z227 >= 1
z30 + z136 + z158 + z234 >= 1
z37 + z40 + z43 + z46 + z52 + z58 + z67 + z83 + z92 + z106 + z110 + z119 + z120 + z128 + z131 + z135 + z174 + z181 + z184 + z186 + z188 + z190 + z194 + z199 + z201 + z207 + z211 + z214 + z216 + z217 + z221 + z224 + z225 + z228 >= 1
z40 + z59 + z67 + z92 + z120 + z128 + z131 + z174 + z183 + z211 + z216 + z225 >= 1
z40 + z46 + z50 + z52 + z67 + z92 + z99 + z120 + z128 + z131 + z135 + z174 + z181 + z184 + z185 + z188 + z189 + z201 + z207 + z210 + z211 + z214 + z216 + z217 + z218 + z224 + z225 >= 1
z59 + z67 + z92 + z99 + z174 + z183 + z184 + z217 + z218 >= 1
z40 + z42 + z58 + z78 + z83 + z110 + z120 + z128 + z131 + z135 + z143 + z150 + z151 + z190 + z194 + z199 + z201 + z216 + z221 + z224 + z225 >= 1
z41 + z50 + z52 + z61 + z107 + z160 + z184 + z185 + z188 + z217 >= 1
z12 + z25 + z26 + z29 + z42 + z78 + z113 + z125 + z143 + z150 + z199 + z221 >= 1
z12 + z14 + z15 + z22 + z26 + z29 + z42 + z86 + z125 + z227 >= 1
z12 + z25 + z26 + z29 + z42 + z61 + z107 + z125 + z229 + z232 + z236 >= 1
z12 + z14 + z15 + z21 + z22 + z26 + z29 + z86 + z125 + z234 >= 1
z32 + z37 + z40 + z43 + z44 + z46 + z51 + z52 + z58 + z83 + z106 + z112 + z119 + z120 + z128 + z131 + z135 + z153 + z154 + z190 + z194 + z201 + z207 + z214 + z216 + z221 + z224 >= 1
z32 + z46 + z50 + z51 + z52 + z135 + z154 + z184 + z188 + z207 + z210 + z214 + z217 + z224 >= 1
z40 + z58 + z89 + z128 + z131 + z135 + z141 + z151 + z153 + z154 + z171 + z190 + z194 + z199 + z221 + z224 >= 1
z36 + z141 + z146 + z168 + z171 + z194 + z227 >= 1
z19 + z41 + z50 + z52 + z107 + z188 >= 1
z19 + z230 + z233 + z234 >= 1
z22 + z26 + z30 + z36 + z171 + z227 + z234 >= 1
z22 + z26 + z30 + z227 + z233 + z234 >= 1
z40 + z43 + z49 + z83 + z88 + z119 + z120 + z124 + z128 + z132 + z156 + z157 + z186 + z201 + z222 + z224 + z225 >= 1
z11 + z17 + z23 + z66 + z68 + z69 + z74 + z100 + z192 + z229 + z232 >= 1
z57 + z75 + z88 + z98 + z124 + z156 + z157 + z169 >= 1
z57 + z75 + z76 + z88 + z93 + z98 + z127 + z156 >= 1
z17 + z18 + z23 + z41 + z57 + z75 + z88 + z98 + z107 + z156 + z160 >= 1
z57 + z75 + z98 >= 1
z16 + z17 + z23 + z25 + z28 + z29 + z42 + z75 + z88 + z229 + z232 >= 1
z13 + z15 + z28 + z29 + z73 + z75 + z86 >= 1
z11 + z16 + z17 + z18 + z23 + z24 + z25 + z28 + z29 + z75 + z100 + z107 + z229 + z232 + z236 >= 1
z13 + z15 + z21 + z23 + z28 + z29 + z75 + z86 + z229 >= 1
z34 + z43 + z44 + z49 + z51 + z112 + z119 + z124 + z129 + z154 + z222 + z224 >= 1
z33 + z34 + z55 + z76 + z102 + z119 + z129 >= 1
z54 + z55 + z129 + z152 >= 1
z10 + z11 + z17 + z24 + z54 + z68 + z100 + z133 >= 1
z54 + z64 + z100 + z133 + z152 + z158 >= 1
z76 + z102 + z127 + z129 + z215 >= 1
z17 + z18 + z24 + z41 + z107 >= 1
z16 + z17 + z24 + z27 + z206 >= 1
z10 + z11 + z16 + z17 + z18 + z23 + z24 + z27 + z100 + z232 >= 1
z37 + z40 + z43 + z49 + z83 + z106 + z110 + z119 + z120 + z124 + z128 + z131 + z132 + z135 + z207 + z211 + z216 + z219 + z222 + z224 + z226 + z228 >= 1
z7 + z25 + z29 + z40 + z42 + z83 + z110 + z128 + z131 + z150 + z221 + z229 + z232 >= 1
z7 + z15 + z29 + z42 + z168 + z223 >= 1
z7 + z11 + z17 + z23 + z25 + z29 + z42 + z68 + z100 + z229 + z232 + z236 >= 1
z7 + z15 + z29 + z229 >= 1
z17 + z18 + z23 + z41 + z61 + z107 + z229 + z232 + z236 >= 1
z7 + z12 + z15 + z16 + z17 + z23 + z25 + z26 + z28 + z29 + z42 + z150 + z229 + z232 + z236 >= 1
z7 + z12 + z13 + z14 + z15 + z21 + z25 + z26 + z28 + z29 + z42 + z86 + z229 >= 1
z7 + z11 + z12 + z15 + z16 + z17 + z18 + z23 + z24 + z25 + z26 + z28 + z29 + z42 + z61 + z107 + z229 + z232 + z236 >= 1
z7 + z12 + z13 + z14 + z15 + z21 + z23 + z25 + z26 + z28 + z29 + z42 + z86 + z229 + z232 + z236 >= 1
z33 + z34 + z37 + z40 + z43 + z44 + z49 + z51 + z83 + z106 + z112 + z119 + z128 + z131 + z135 + z154 + z207 + z222 + z224 >= 1
z33 + z34 + z35 + z55 + z119 + z129 + z168 >= 1
z6 + z33 + z55 + z230 >= 1
z33 + z35 + z146 + z168 + z171 + z223 >= 1
z10 + z11 + z17 + z24 + z68 + z100 + z187 + z232 >= 1
z17 + z18 + z19 + z24 + z41 + z107 + z230 >= 1
z6 + z19 + z230 + z231 >= 1
z16 + z17 + z24 + z25 + z27 + z42 + z232 >= 1
z10 + z11 + z16 + z17 + z18 + z23 + z24 + z25 + z27 + z100 + z107 + z229 + z232 + z235 + z236 >= 1


Binary
z0
z1
z2
z3
z4
z5
z6
z7
z8
z9
z10
z11
z12
z13
z14
z15
z16
z17
z18
z19
z20
z21
z22
z23
z24
z25
z26
z27
z28
z29
z30
z31
z32
z33
z34
z35
z36
z37
z38
z39
z40
z41
z42
z43
z44
z45
z46
z47
z48
z49
z50
z51
z52
z53
z54
z55
z56
z57
z58
z59
z60
z61
z62
z63
z64
z65
z66
z67
z68
z69
z70
z71
z72
z73
z74
z75
z76
z77
z78
z79
z80
z81
z82
z83
z84
z85
z86
z87
z88
z89
z90
z91
z92
z93
z94
z95
z96
z97
z98
z99
z100
z101
z102
z103
z104
z105
z106
z107
z108
z109
z110
z111
z112
z113
z114
z115
z116
z117
z118
z119
z120
z121
z122
z123
z124
z125
z126
z127
z128
z129
z130
z131
z132
z133
z134
z135
z136
z137
z138
z139
z140
z141
z142
z143
z144
z145
z146
z147
z148
z149
z150
z151
z152
z153
z154
z155
z156
z157
z158
z159
z160
z161
z162
z163
z164
z165
z166
z167
z168
z169
z170
z171
z172
z173
z174
z175
z176
z177
z178
z179
z180
z181
z182
z183
z184
z185
z186
z187
z188
z189
z190
z191
z192
z193
z194
z195
z196
z197
z198
z199
z200
z201
z202
z203
z204
z205
z206
z207
z208
z209
z210
z211
z212
z213
z214
z215
z216
z217
z218
z219
z220
z221
z222
z223
z224
z225
z226
z227
z228
z229
z230
z231
z232
z233
z234
z235
z236
